&BANDS
    prefix = 'scf'
    outdir = './tmp'
    filband = 'bands.dat'
 /
