&CONTROL
! .control.settings
calculation               = 'bands',
restart_mode              = 'from_scratch',
prefix                    = 'scf',
pseudo_dir                = '/shared/ESPRESSO/PSLIBRARY/1.0.0/pbe/PSEUDOPOTENTIALS/',
wf_collect                = .false.,

! .control.io
verbosity                 = 'low',
disk_io                   = 'medium',
wf_collect                = .false.,
outdir                    = '/home/theodoros/PROJ_TUTORIALS/theodoros/Lesson_9/SCF/tmp',

! .control.ion_relax
etot_conv_thr             = 0.0001,
forc_conv_thr             = 0.001,
nstep                     = 100,
tprnfor                   = .true.,
tstress                   = .true.,
/

&SYSTEM
! .system.structure
a                         = 1.0,
ibrav                     = 0,
nat                       = 2,
ntyp                      = 1,

! .system.ecut
ecutwfc                   = 35.0,
ecutrho                   = 140,

! .system.occupations
degauss                   = 0.007,
smearing                  = 'fd',
occupations               = 'smearing',

! .system.additional_keywords
tot_charge                = 0,
/

&ELECTRONS
! .electrons
diagonalization           = 'david',
mixing_mode               = 'plain',
electron_maxstep          = 100,
mixing_beta               = 0.7,
conv_thr                  = 1e-06,
/

! .atomic_species
ATOMIC_SPECIES
   Ge  72.6300 Ge.pbe-n-kjpaw_psl.1.0.0.UPF

ATOMIC_POSITIONS  crystal 
 Ge     0.00000000000000     0.00000000000000     0.00000000000000   1   1   1
 Ge     0.25000000000000     0.25000000000000     0.25000000000000   1   1   1
CELL_PARAMETERS alat
    0.00000000000000     2.88550000000000     2.88550000000000
    2.88550000000000     0.00000000000000     2.88550000000000
    2.88550000000000     2.88550000000000     0.00000000000000

! .kpoints
K_POINTS crystal   ! .kpoints.type 
301
 0.544375784715  0.544375784715  0.544375784715     1.000000
 0.540459412163  0.540459412163  0.540459412163     1.000000
 0.536543039611  0.536543039611  0.536543039611     1.000000
 0.532626667059  0.532626667059  0.532626667059     1.000000
 0.528710294507  0.528710294507  0.528710294507     1.000000
 0.524793921955  0.524793921955  0.524793921955     1.000000
 0.520877549403  0.520877549403  0.520877549403     1.000000
 0.516961176852  0.516961176852  0.516961176852     1.000000
 0.513044804300  0.513044804300  0.513044804300     1.000000
 0.509128431748  0.509128431748  0.509128431748     1.000000
 0.505212059196  0.505212059196  0.505212059196     1.000000
 0.501295686644  0.501295686644  0.501295686644     1.000000
 0.497379314092  0.497379314092  0.497379314092     1.000000
 0.493462941540  0.493462941540  0.493462941540     1.000000
 0.489546568988  0.489546568988  0.489546568988     1.000000
 0.485630196436  0.485630196436  0.485630196436     1.000000
 0.481713823884  0.481713823884  0.481713823884     1.000000
 0.477797451333  0.477797451333  0.477797451333     1.000000
 0.473881078781  0.473881078781  0.473881078781     1.000000
 0.469964706229  0.469964706229  0.469964706229     1.000000
 0.466048333677  0.466048333677  0.466048333677     1.000000
 0.462131961125  0.462131961125  0.462131961125     1.000000
 0.458215588573  0.458215588573  0.458215588573     1.000000
 0.454299216021  0.454299216021  0.454299216021     1.000000
 0.450382843469  0.450382843469  0.450382843469     1.000000
 0.446466470917  0.446466470917  0.446466470917     1.000000
 0.442550098365  0.442550098365  0.442550098365     1.000000
 0.438633725813  0.438633725813  0.438633725813     1.000000
 0.434717353262  0.434717353262  0.434717353262     1.000000
 0.430800980710  0.430800980710  0.430800980710     1.000000
 0.426884608158  0.426884608158  0.426884608158     1.000000
 0.422968235606  0.422968235606  0.422968235606     1.000000
 0.419051863054  0.419051863054  0.419051863054     1.000000
 0.415135490502  0.415135490502  0.415135490502     1.000000
 0.411219117950  0.411219117950  0.411219117950     1.000000
 0.407302745398  0.407302745398  0.407302745398     1.000000
 0.403386372846  0.403386372846  0.403386372846     1.000000
 0.399470000294  0.399470000294  0.399470000294     1.000000
 0.395553627742  0.395553627742  0.395553627742     1.000000
 0.391637255191  0.391637255191  0.391637255191     1.000000
 0.387720882639  0.387720882639  0.387720882639     1.000000
 0.383804510087  0.383804510087  0.383804510087     1.000000
 0.379888137535  0.379888137535  0.379888137535     1.000000
 0.375971764983  0.375971764983  0.375971764983     1.000000
 0.372055392431  0.372055392431  0.372055392431     1.000000
 0.368139019879  0.368139019879  0.368139019879     1.000000
 0.364222647327  0.364222647327  0.364222647327     1.000000
 0.360306274775  0.360306274775  0.360306274775     1.000000
 0.356389902223  0.356389902223  0.356389902223     1.000000
 0.352473529672  0.352473529672  0.352473529672     1.000000
 0.348557157120  0.348557157120  0.348557157120     1.000000
 0.344640784568  0.344640784568  0.344640784568     1.000000
 0.340724412016  0.340724412016  0.340724412016     1.000000
 0.336808039464  0.336808039464  0.336808039464     1.000000
 0.332891666912  0.332891666912  0.332891666912     1.000000
 0.328975294360  0.328975294360  0.328975294360     1.000000
 0.325058921808  0.325058921808  0.325058921808     1.000000
 0.321142549256  0.321142549256  0.321142549256     1.000000
 0.317226176704  0.317226176704  0.317226176704     1.000000
 0.313309804152  0.313309804152  0.313309804152     1.000000
 0.309393431601  0.309393431601  0.309393431601     1.000000
 0.305477059049  0.305477059049  0.305477059049     1.000000
 0.301560686497  0.301560686497  0.301560686497     1.000000
 0.297644313945  0.297644313945  0.297644313945     1.000000
 0.293727941393  0.293727941393  0.293727941393     1.000000
 0.289811568841  0.289811568841  0.289811568841     1.000000
 0.285895196289  0.285895196289  0.285895196289     1.000000
 0.281978823737  0.281978823737  0.281978823737     1.000000
 0.278062451185  0.278062451185  0.278062451185     1.000000
 0.274146078633  0.274146078633  0.274146078633     1.000000
 0.270229706082  0.270229706082  0.270229706082     1.000000
 0.266313333530  0.266313333530  0.266313333530     1.000000
 0.262396960978  0.262396960978  0.262396960978     1.000000
 0.258480588426  0.258480588426  0.258480588426     1.000000
 0.254564215874  0.254564215874  0.254564215874     1.000000
 0.250647843322  0.250647843322  0.250647843322     1.000000
 0.246731470770  0.246731470770  0.246731470770     1.000000
 0.242815098218  0.242815098218  0.242815098218     1.000000
 0.238898725666  0.238898725666  0.238898725666     1.000000
 0.234982353114  0.234982353114  0.234982353114     1.000000
 0.231065980562  0.231065980562  0.231065980562     1.000000
 0.227149608011  0.227149608011  0.227149608011     1.000000
 0.223233235459  0.223233235459  0.223233235459     1.000000
 0.219316862907  0.219316862907  0.219316862907     1.000000
 0.215400490355  0.215400490355  0.215400490355     1.000000
 0.211484117803  0.211484117803  0.211484117803     1.000000
 0.207567745251  0.207567745251  0.207567745251     1.000000
 0.203651372699  0.203651372699  0.203651372699     1.000000
 0.199735000147  0.199735000147  0.199735000147     1.000000
 0.195818627595  0.195818627595  0.195818627595     1.000000
 0.191902255043  0.191902255043  0.191902255043     1.000000
 0.187985882491  0.187985882491  0.187985882491     1.000000
 0.184069509940  0.184069509940  0.184069509940     1.000000
 0.180153137388  0.180153137388  0.180153137388     1.000000
 0.176236764836  0.176236764836  0.176236764836     1.000000
 0.172320392284  0.172320392284  0.172320392284     1.000000
 0.168404019732  0.168404019732  0.168404019732     1.000000
 0.164487647180  0.164487647180  0.164487647180     1.000000
 0.160571274628  0.160571274628  0.160571274628     1.000000
 0.156654902076  0.156654902076  0.156654902076     1.000000
 0.152738529524  0.152738529524  0.152738529524     1.000000
 0.148822156972  0.148822156972  0.148822156972     1.000000
 0.144905784421  0.144905784421  0.144905784421     1.000000
 0.140989411869  0.140989411869  0.140989411869     1.000000
 0.137073039317  0.137073039317  0.137073039317     1.000000
 0.133156666765  0.133156666765  0.133156666765     1.000000
 0.129240294213  0.129240294213  0.129240294213     1.000000
 0.125323921661  0.125323921661  0.125323921661     1.000000
 0.121407549109  0.121407549109  0.121407549109     1.000000
 0.117491176557  0.117491176557  0.117491176557     1.000000
 0.113574804005  0.113574804005  0.113574804005     1.000000
 0.109658431453  0.109658431453  0.109658431453     1.000000
 0.105742058901  0.105742058901  0.105742058901     1.000000
 0.101825686350  0.101825686350  0.101825686350     1.000000
 0.097909313798  0.097909313798  0.097909313798     1.000000
 0.093992941246  0.093992941246  0.093992941246     1.000000
 0.090076568694  0.090076568694  0.090076568694     1.000000
 0.086160196142  0.086160196142  0.086160196142     1.000000
 0.082243823590  0.082243823590  0.082243823590     1.000000
 0.078327451038  0.078327451038  0.078327451038     1.000000
 0.074411078486  0.074411078486  0.074411078486     1.000000
 0.070494705934  0.070494705934  0.070494705934     1.000000
 0.066578333382  0.066578333382  0.066578333382     1.000000
 0.062661960830  0.062661960830  0.062661960830     1.000000
 0.058745588279  0.058745588279  0.058745588279     1.000000
 0.054829215727  0.054829215727  0.054829215727     1.000000
 0.050912843175  0.050912843175  0.050912843175     1.000000
 0.046996470623  0.046996470623  0.046996470623     1.000000
 0.043080098071  0.043080098071  0.043080098071     1.000000
 0.039163725519  0.039163725519  0.039163725519     1.000000
 0.035247352967  0.035247352967  0.035247352967     1.000000
 0.031330980415  0.031330980415  0.031330980415     1.000000
 0.027414607863  0.027414607863  0.027414607863     1.000000
 0.023498235311  0.023498235311  0.023498235311     1.000000
 0.019581862760  0.019581862760  0.019581862760     1.000000
 0.015665490208  0.015665490208  0.015665490208     1.000000
 0.011749117656  0.011749117656  0.011749117656     1.000000
 0.007832745104  0.007832745104  0.007832745104     1.000000
 0.003916372552  0.003916372552  0.003916372552     1.000000
 0.000000000000  0.000000000000  0.000000000000     1.000000
 0.000000000000  0.006762432108  0.000000000000     1.000000
 0.000000000000  0.013524864217  0.000000000000     1.000000
 0.000000000000  0.020287296325  0.000000000000     1.000000
 0.000000000000  0.027049728433  0.000000000000     1.000000
 0.000000000000  0.033812160541  0.000000000000     1.000000
 0.000000000000  0.040574592650  0.000000000000     1.000000
 0.000000000000  0.047337024758  0.000000000000     1.000000
 0.000000000000  0.054099456866  0.000000000000     1.000000
 0.000000000000  0.060861888974  0.000000000000     1.000000
 0.000000000000  0.067624321083  0.000000000000     1.000000
 0.000000000000  0.074386753191  0.000000000000     1.000000
 0.000000000000  0.081149185299  0.000000000000     1.000000
 0.000000000000  0.087911617407  0.000000000000     1.000000
 0.000000000000  0.094674049516  0.000000000000     1.000000
 0.000000000000  0.101436481624  0.000000000000     1.000000
 0.000000000000  0.108198913732  0.000000000000     1.000000
 0.000000000000  0.114961345840  0.000000000000     1.000000
 0.000000000000  0.121723777949  0.000000000000     1.000000
 0.000000000000  0.128486210057  0.000000000000     1.000000
 0.000000000000  0.135248642165  0.000000000000     1.000000
 0.000000000000  0.142011074273  0.000000000000     1.000000
 0.000000000000  0.148773506382  0.000000000000     1.000000
 0.000000000000  0.155535938490  0.000000000000     1.000000
 0.000000000000  0.162298370598  0.000000000000     1.000000
 0.000000000000  0.169060802706  0.000000000000     1.000000
 0.000000000000  0.175823234815  0.000000000000     1.000000
 0.000000000000  0.182585666923  0.000000000000     1.000000
 0.000000000000  0.189348099031  0.000000000000     1.000000
 0.000000000000  0.196110531140  0.000000000000     1.000000
 0.000000000000  0.202872963248  0.000000000000     1.000000
 0.000000000000  0.209635395356  0.000000000000     1.000000
 0.000000000000  0.216397827464  0.000000000000     1.000000
 0.000000000000  0.223160259573  0.000000000000     1.000000
 0.000000000000  0.229922691681  0.000000000000     1.000000
 0.000000000000  0.236685123789  0.000000000000     1.000000
 0.000000000000  0.243447555897  0.000000000000     1.000000
 0.000000000000  0.250209988006  0.000000000000     1.000000
 0.000000000000  0.256972420114  0.000000000000     1.000000
 0.000000000000  0.263734852222  0.000000000000     1.000000
 0.000000000000  0.270497284330  0.000000000000     1.000000
 0.000000000000  0.277259716439  0.000000000000     1.000000
 0.000000000000  0.284022148547  0.000000000000     1.000000
 0.000000000000  0.290784580655  0.000000000000     1.000000
 0.000000000000  0.297547012763  0.000000000000     1.000000
 0.000000000000  0.304309444872  0.000000000000     1.000000
 0.000000000000  0.311071876980  0.000000000000     1.000000
 0.000000000000  0.317834309088  0.000000000000     1.000000
 0.000000000000  0.324596741196  0.000000000000     1.000000
 0.000000000000  0.331359173305  0.000000000000     1.000000
 0.000000000000  0.338121605413  0.000000000000     1.000000
 0.000000000000  0.344884037521  0.000000000000     1.000000
 0.000000000000  0.351646469630  0.000000000000     1.000000
 0.000000000000  0.358408901738  0.000000000000     1.000000
 0.000000000000  0.365171333846  0.000000000000     1.000000
 0.000000000000  0.371933765954  0.000000000000     1.000000
 0.000000000000  0.378696198063  0.000000000000     1.000000
 0.000000000000  0.385458630171  0.000000000000     1.000000
 0.000000000000  0.392221062279  0.000000000000     1.000000
 0.000000000000  0.398983494387  0.000000000000     1.000000
 0.000000000000  0.405745926496  0.000000000000     1.000000
 0.000000000000  0.412508358604  0.000000000000     1.000000
 0.000000000000  0.419270790712  0.000000000000     1.000000
 0.000000000000  0.426033222820  0.000000000000     1.000000
 0.000000000000  0.432795654929  0.000000000000     1.000000
 0.000000000000  0.439558087037  0.000000000000     1.000000
 0.000000000000  0.446320519145  0.000000000000     1.000000
 0.000000000000  0.453082951253  0.000000000000     1.000000
 0.000000000000  0.459845383362  0.000000000000     1.000000
 0.000000000000  0.466607815470  0.000000000000     1.000000
 0.000000000000  0.473370247578  0.000000000000     1.000000
 0.000000000000  0.480132679686  0.000000000000     1.000000
 0.000000000000  0.486895111795  0.000000000000     1.000000
 0.000000000000  0.493657543903  0.000000000000     1.000000
 0.000000000000  0.500419976011  0.000000000000     1.000000
 0.000000000000  0.507182408119  0.000000000000     1.000000
 0.000000000000  0.513944840228  0.000000000000     1.000000
 0.000000000000  0.520707272336  0.000000000000     1.000000
 0.000000000000  0.527469704444  0.000000000000     1.000000
 0.000000000000  0.534232136553  0.000000000000     1.000000
 0.000000000000  0.540994568661  0.000000000000     1.000000
 0.000000000000  0.547757000769  0.000000000000     1.000000
 0.000000000000  0.554519432877  0.000000000000     1.000000
 0.000000000000  0.561281864986  0.000000000000     1.000000
 0.000000000000  0.568044297094  0.000000000000     1.000000
 0.000000000000  0.574806729202  0.000000000000     1.000000
 0.000000000000  0.581569161310  0.000000000000     1.000000
 0.000000000000  0.588331593419  0.000000000000     1.000000
 0.000000000000  0.595094025527  0.000000000000     1.000000
 0.000000000000  0.601856457635  0.000000000000     1.000000
 0.000000000000  0.608618889743  0.000000000000     1.000000
 0.000000000000  0.615381321852  0.000000000000     1.000000
 0.000000000000  0.622143753960  0.000000000000     1.000000
 0.000000000000  0.628906186068  0.000000000000     1.000000
 0.000000000000  0.635668618176  0.000000000000     1.000000
 0.000000000000  0.642431050285  0.000000000000     1.000000
 0.000000000000  0.649193482393  0.000000000000     1.000000
 0.000000000000  0.655955914501  0.000000000000     1.000000
 0.000000000000  0.662718346609  0.000000000000     1.000000
 0.000000000000  0.669480778718  0.000000000000     1.000000
 0.000000000000  0.676243210826  0.000000000000     1.000000
 0.000000000000  0.683005642934  0.000000000000     1.000000
 0.000000000000  0.689768075043  0.000000000000     1.000000
 0.000000000000  0.696530507151  0.000000000000     1.000000
 0.000000000000  0.703292939259  0.000000000000     1.000000
 0.000000000000  0.710055371367  0.000000000000     1.000000
 0.000000000000  0.716817803476  0.000000000000     1.000000
 0.000000000000  0.723580235584  0.000000000000     1.000000
 0.000000000000  0.730342667692  0.000000000000     1.000000
 0.000000000000  0.737105099800  0.000000000000     1.000000
 0.000000000000  0.743867531909  0.000000000000     1.000000
 0.000000000000  0.750629964017  0.000000000000     1.000000
 0.000000000000  0.757392396125  0.000000000000     1.000000
 0.000000000000  0.764154828233  0.000000000000     1.000000
 0.000000000000  0.770917260342  0.000000000000     1.000000
 0.000000000000  0.777679692450  0.000000000000     1.000000
 0.000000000000  0.784442124558  0.000000000000     1.000000
 0.000000000000  0.791204556666  0.000000000000     1.000000
 0.000000000000  0.797966988775  0.000000000000     1.000000
 0.000000000000  0.804729420883  0.000000000000     1.000000
 0.000000000000  0.811491852991  0.000000000000     1.000000
 0.000000000000  0.818254285099  0.000000000000     1.000000
 0.000000000000  0.825016717208  0.000000000000     1.000000
 0.000000000000  0.831779149316  0.000000000000     1.000000
 0.000000000000  0.838541581424  0.000000000000     1.000000
 0.000000000000  0.845304013532  0.000000000000     1.000000
 0.000000000000  0.852066445641  0.000000000000     1.000000
 0.000000000000  0.858828877749  0.000000000000     1.000000
 0.000000000000  0.865591309857  0.000000000000     1.000000
 0.000000000000  0.872353741966  0.000000000000     1.000000
 0.000000000000  0.879116174074  0.000000000000     1.000000
 0.000000000000  0.885878606182  0.000000000000     1.000000
 0.000000000000  0.892641038290  0.000000000000     1.000000
 0.000000000000  0.899403470399  0.000000000000     1.000000
 0.000000000000  0.906165902507  0.000000000000     1.000000
 0.000000000000  0.912928334615  0.000000000000     1.000000
 0.000000000000  0.919690766723  0.000000000000     1.000000
 0.000000000000  0.926453198832  0.000000000000     1.000000
 0.000000000000  0.933215630940  0.000000000000     1.000000
 0.000000000000  0.939978063048  0.000000000000     1.000000
 0.000000000000  0.946740495156  0.000000000000     1.000000
 0.000000000000  0.953502927265  0.000000000000     1.000000
 0.000000000000  0.960265359373  0.000000000000     1.000000
 0.000000000000  0.967027791481  0.000000000000     1.000000
 0.000000000000  0.973790223589  0.000000000000     1.000000
 0.000000000000  0.980552655698  0.000000000000     1.000000
 0.000000000000  0.987315087806  0.000000000000     1.000000
 0.000000000000  0.994077519914  0.000000000000     1.000000
 0.000000000000  1.000839952022  0.000000000000     1.000000
 0.000000000000  1.007602384131  0.000000000000     1.000000
 0.000000000000  1.014364816239  0.000000000000     1.000000
 0.000000000000  1.021127248347  0.000000000000     1.000000
 0.000000000000  1.027889680455  0.000000000000     1.000000
 0.000000000000  1.034652112564  0.000000000000     1.000000
 0.000000000000  1.041414544672  0.000000000000     1.000000
 0.000000000000  1.048176976780  0.000000000000     1.000000
 0.000000000000  1.054939408889  0.000000000000     1.000000
 0.000000000000  1.061701840997  0.000000000000     1.000000
 0.000000000000  1.068464273105  0.000000000000     1.000000
 0.000000000000  1.075226705213  0.000000000000     1.000000
 0.000000000000  1.081989137322  0.000000000000     1.000000
 0.000000000000  1.088751569430  0.000000000000     1.000000
