&BANDS
    prefix = 'scf'
    outdir = '/shared/ESPRESSO/PSLIBRARY/1.0.0/pbe/PSEUDOPOTENTIALS/'
    filband = 'bands.dat'
 /
