&BANDS
    prefix = 'scf'
    outdir = '/home/theodoros/PROJ_TUTORIALS/theodoros/Lesson_9/SCF/tmp'
    filband = 'bands.dat'
 /
