&CONTROL
! .control.settings
calculation               = 'bands',
restart_mode              = 'from_scratch',
prefix                    = 'scf',
pseudo_dir                = '/shared/ESPRESSO/PSLIBRARY/1.0.0/pbe/PSEUDOPOTENTIALS/',
wf_collect                = .false.,

! .control.io
verbosity                 = 'low',
disk_io                   = 'medium',
wf_collect                = .false.,
outdir                    = '/home/theodoros/PROJ_TUTORIALS/theodoros/Lesson_9/SCF/tmp',

! .control.ion_relax
etot_conv_thr             = 0.0001,
forc_conv_thr             = 0.001,
nstep                     = 100,
tprnfor                   = .true.,
tstress                   = .true.,
/

&SYSTEM
! .system.structure
a                         = 1.0,
ibrav                     = 0,
nat                       = 2,
ntyp                      = 1,

! .system.ecut
ecutwfc                   = 35.0,
ecutrho                   = 140,

! .system.occupations
degauss                   = 0.007,
smearing                  = 'fd',
occupations               = 'smearing',

! .system.additional_keywords
tot_charge                = 0,
/

&ELECTRONS
! .electrons
diagonalization           = 'david',
mixing_mode               = 'plain',
electron_maxstep          = 100,
mixing_beta               = 0.7,
conv_thr                  = 1e-06,
/

! .atomic_species
ATOMIC_SPECIES
   Ge  72.6300 Ge.pbe-n-kjpaw_psl.1.0.0.UPF

ATOMIC_POSITIONS  crystal 
 Ge     0.00000000000000     0.00000000000000     0.00000000000000   1   1   1
 Ge     0.25000000000000     0.25000000000000     0.25000000000000   1   1   1
CELL_PARAMETERS alat
    0.00000000000000     2.88550000000000     2.88550000000000
    2.88550000000000     0.00000000000000     2.88550000000000
    2.88550000000000     2.88550000000000     0.00000000000000

! .kpoints
K_POINTS crystal   ! .kpoints.type 
31
 0.500000000000  0.500000000000  0.500000000000     1.000000
 0.470588235294  0.470588235294  0.470588235294     1.000000
 0.441176470588  0.441176470588  0.441176470588     1.000000
 0.411764705882  0.411764705882  0.411764705882     1.000000
 0.382352941176  0.382352941176  0.382352941176     1.000000
 0.352941176471  0.352941176471  0.352941176471     1.000000
 0.323529411765  0.323529411765  0.323529411765     1.000000
 0.294117647059  0.294117647059  0.294117647059     1.000000
 0.264705882353  0.264705882353  0.264705882353     1.000000
 0.235294117647  0.235294117647  0.235294117647     1.000000
 0.205882352941  0.205882352941  0.205882352941     1.000000
 0.176470588235  0.176470588235  0.176470588235     1.000000
 0.147058823529  0.147058823529  0.147058823529     1.000000
 0.117647058824  0.117647058824  0.117647058824     1.000000
 0.088235294118  0.088235294118  0.088235294118     1.000000
 0.058823529412  0.058823529412  0.058823529412     1.000000
 0.029411764706  0.029411764706  0.029411764706     1.000000
 0.000000000000  0.000000000000  0.000000000000     1.000000
 0.000000000000  0.038461538462  0.038461538462     1.000000
 0.000000000000  0.076923076923  0.076923076923     1.000000
 0.000000000000  0.115384615385  0.115384615385     1.000000
 0.000000000000  0.153846153846  0.153846153846     1.000000
 0.000000000000  0.192307692308  0.192307692308     1.000000
 0.000000000000  0.230769230769  0.230769230769     1.000000
 0.000000000000  0.269230769231  0.269230769231     1.000000
 0.000000000000  0.307692307692  0.307692307692     1.000000
 0.000000000000  0.346153846154  0.346153846154     1.000000
 0.000000000000  0.384615384615  0.384615384615     1.000000
 0.000000000000  0.423076923077  0.423076923077     1.000000
 0.000000000000  0.461538461538  0.461538461538     1.000000
 0.000000000000  0.500000000000  0.500000000000     1.000000
