Automatically generated mesh
31
Reciprocal lattice
 0.544375784715  0.544375784715  0.544375784715     1.000000
 0.505491800092  0.505491800092  0.505491800092     1.000000
 0.466607815470  0.466607815470  0.466607815470     1.000000
 0.427723830847  0.427723830847  0.427723830847     1.000000
 0.388839846225  0.388839846225  0.388839846225     1.000000
 0.349955861602  0.349955861602  0.349955861602     1.000000
 0.311071876980  0.311071876980  0.311071876980     1.000000
 0.272187892357  0.272187892357  0.272187892357     1.000000
 0.233303907735  0.233303907735  0.233303907735     1.000000
 0.194419923112  0.194419923112  0.194419923112     1.000000
 0.155535938490  0.155535938490  0.155535938490     1.000000
 0.116651953867  0.116651953867  0.116651953867     1.000000
 0.077767969245  0.077767969245  0.077767969245     1.000000
 0.038883984622  0.038883984622  0.038883984622     1.000000
 0.000000000000  0.000000000000  0.000000000000     1.000000
 0.000000000000  0.000000000000  0.068046973089     1.000000
 0.000000000000  0.000000000000  0.136093946179     1.000000
 0.000000000000  0.000000000000  0.204140919268     1.000000
 0.000000000000  0.000000000000  0.272187892357     1.000000
 0.000000000000  0.000000000000  0.340234865447     1.000000
 0.000000000000  0.000000000000  0.408281838536     1.000000
 0.000000000000  0.000000000000  0.476328811626     1.000000
 0.000000000000  0.000000000000  0.544375784715     1.000000
 0.000000000000  0.000000000000  0.612422757804     1.000000
 0.000000000000  0.000000000000  0.680469730894     1.000000
 0.000000000000  0.000000000000  0.748516703983     1.000000
 0.000000000000  0.000000000000  0.816563677072     1.000000
 0.000000000000  0.000000000000  0.884610650162     1.000000
 0.000000000000  0.000000000000  0.952657623251     1.000000
 0.000000000000  0.000000000000  1.020704596340     1.000000
 0.000000000000  0.000000000000  1.088751569430     1.000000
