&BANDS
    prefix = 'scf'
    outdir = '/home/theodoros/PROJ_TUTORIALS/theodoros/Ge_bulk/test/SCF/tmp'
    filband = 'bands.dat'
 /
