&CONTROL
! .control.settings
calculation               = 'bands',
restart_mode              = 'from_scratch',
prefix                    = 'scf',
pseudo_dir                = '/shared/ESPRESSO/PSLIBRARY/1.0.0/pbe/PSEUDOPOTENTIALS/',

! .control.io
verbosity                 = 'low',
disk_io                   = 'medium',
wf_collect                = .false.,
outdir                    = '/home/theodoros/PROJ_TUTORIALS/theodoros/Ge_bulk/bands/SCF/tmp',

! .control.ion_relax
etot_conv_thr             = 0.0001,
forc_conv_thr             = 0.001,
nstep                     = 100,
tprnfor                   = .true.,
tstress                   = .true.,
/

&SYSTEM
! .system.structure
a                         = 1.0,
ibrav                     = 0,
nat                       = 2,
ntyp                      = 1,

! .system.ecut
ecutwfc                   = 35.0,
ecutrho                   = 140,

! .system.occupations
degauss                   = 0.007,
smearing                  = 'fd',
occupations               = 'smearing',

! .system.additional_keywords
tot_charge                = 0,
/

&ELECTRONS
! .electrons
diagonalization           = 'david',
mixing_mode               = 'plain',
electron_maxstep          = 100,
mixing_beta               = 0.7,
conv_thr                  = 1e-06,
/

! .atomic_species
ATOMIC_SPECIES
   Ge  72.6400 Ge.pbe-n-kjpaw_psl.1.0.0.UPF

ATOMIC_POSITIONS  crystal 
 Ge     0.00000000000000     0.00000000000000     0.00000000000000   1   1   1
 Ge     0.25000000000000     0.25000000000000     0.25000000000000   1   1   1
CELL_PARAMETERS alat
    0.00000000000000     2.82900000000000     2.82900000000000
    2.82900000000000     0.00000000000000     2.82900000000000
    2.82900000000000     2.82900000000000     0.00000000000000

! .kpoints
K_POINTS crystal   ! .kpoints.type 
500
 0.500000000000  0.500000000000  0.500000000000     1.000000
 0.498181818182  0.498181818182  0.498181818182     1.000000
 0.496363636364  0.496363636364  0.496363636364     1.000000
 0.494545454545  0.494545454545  0.494545454545     1.000000
 0.492727272727  0.492727272727  0.492727272727     1.000000
 0.490909090909  0.490909090909  0.490909090909     1.000000
 0.489090909091  0.489090909091  0.489090909091     1.000000
 0.487272727273  0.487272727273  0.487272727273     1.000000
 0.485454545455  0.485454545455  0.485454545455     1.000000
 0.483636363636  0.483636363636  0.483636363636     1.000000
 0.481818181818  0.481818181818  0.481818181818     1.000000
 0.480000000000  0.480000000000  0.480000000000     1.000000
 0.478181818182  0.478181818182  0.478181818182     1.000000
 0.476363636364  0.476363636364  0.476363636364     1.000000
 0.474545454545  0.474545454545  0.474545454545     1.000000
 0.472727272727  0.472727272727  0.472727272727     1.000000
 0.470909090909  0.470909090909  0.470909090909     1.000000
 0.469090909091  0.469090909091  0.469090909091     1.000000
 0.467272727273  0.467272727273  0.467272727273     1.000000
 0.465454545455  0.465454545455  0.465454545455     1.000000
 0.463636363636  0.463636363636  0.463636363636     1.000000
 0.461818181818  0.461818181818  0.461818181818     1.000000
 0.460000000000  0.460000000000  0.460000000000     1.000000
 0.458181818182  0.458181818182  0.458181818182     1.000000
 0.456363636364  0.456363636364  0.456363636364     1.000000
 0.454545454545  0.454545454545  0.454545454545     1.000000
 0.452727272727  0.452727272727  0.452727272727     1.000000
 0.450909090909  0.450909090909  0.450909090909     1.000000
 0.449090909091  0.449090909091  0.449090909091     1.000000
 0.447272727273  0.447272727273  0.447272727273     1.000000
 0.445454545455  0.445454545455  0.445454545455     1.000000
 0.443636363636  0.443636363636  0.443636363636     1.000000
 0.441818181818  0.441818181818  0.441818181818     1.000000
 0.440000000000  0.440000000000  0.440000000000     1.000000
 0.438181818182  0.438181818182  0.438181818182     1.000000
 0.436363636364  0.436363636364  0.436363636364     1.000000
 0.434545454545  0.434545454545  0.434545454545     1.000000
 0.432727272727  0.432727272727  0.432727272727     1.000000
 0.430909090909  0.430909090909  0.430909090909     1.000000
 0.429090909091  0.429090909091  0.429090909091     1.000000
 0.427272727273  0.427272727273  0.427272727273     1.000000
 0.425454545455  0.425454545455  0.425454545455     1.000000
 0.423636363636  0.423636363636  0.423636363636     1.000000
 0.421818181818  0.421818181818  0.421818181818     1.000000
 0.420000000000  0.420000000000  0.420000000000     1.000000
 0.418181818182  0.418181818182  0.418181818182     1.000000
 0.416363636364  0.416363636364  0.416363636364     1.000000
 0.414545454545  0.414545454545  0.414545454545     1.000000
 0.412727272727  0.412727272727  0.412727272727     1.000000
 0.410909090909  0.410909090909  0.410909090909     1.000000
 0.409090909091  0.409090909091  0.409090909091     1.000000
 0.407272727273  0.407272727273  0.407272727273     1.000000
 0.405454545455  0.405454545455  0.405454545455     1.000000
 0.403636363636  0.403636363636  0.403636363636     1.000000
 0.401818181818  0.401818181818  0.401818181818     1.000000
 0.400000000000  0.400000000000  0.400000000000     1.000000
 0.398181818182  0.398181818182  0.398181818182     1.000000
 0.396363636364  0.396363636364  0.396363636364     1.000000
 0.394545454545  0.394545454545  0.394545454545     1.000000
 0.392727272727  0.392727272727  0.392727272727     1.000000
 0.390909090909  0.390909090909  0.390909090909     1.000000
 0.389090909091  0.389090909091  0.389090909091     1.000000
 0.387272727273  0.387272727273  0.387272727273     1.000000
 0.385454545455  0.385454545455  0.385454545455     1.000000
 0.383636363636  0.383636363636  0.383636363636     1.000000
 0.381818181818  0.381818181818  0.381818181818     1.000000
 0.380000000000  0.380000000000  0.380000000000     1.000000
 0.378181818182  0.378181818182  0.378181818182     1.000000
 0.376363636364  0.376363636364  0.376363636364     1.000000
 0.374545454545  0.374545454545  0.374545454545     1.000000
 0.372727272727  0.372727272727  0.372727272727     1.000000
 0.370909090909  0.370909090909  0.370909090909     1.000000
 0.369090909091  0.369090909091  0.369090909091     1.000000
 0.367272727273  0.367272727273  0.367272727273     1.000000
 0.365454545455  0.365454545455  0.365454545455     1.000000
 0.363636363636  0.363636363636  0.363636363636     1.000000
 0.361818181818  0.361818181818  0.361818181818     1.000000
 0.360000000000  0.360000000000  0.360000000000     1.000000
 0.358181818182  0.358181818182  0.358181818182     1.000000
 0.356363636364  0.356363636364  0.356363636364     1.000000
 0.354545454545  0.354545454545  0.354545454545     1.000000
 0.352727272727  0.352727272727  0.352727272727     1.000000
 0.350909090909  0.350909090909  0.350909090909     1.000000
 0.349090909091  0.349090909091  0.349090909091     1.000000
 0.347272727273  0.347272727273  0.347272727273     1.000000
 0.345454545455  0.345454545455  0.345454545455     1.000000
 0.343636363636  0.343636363636  0.343636363636     1.000000
 0.341818181818  0.341818181818  0.341818181818     1.000000
 0.340000000000  0.340000000000  0.340000000000     1.000000
 0.338181818182  0.338181818182  0.338181818182     1.000000
 0.336363636364  0.336363636364  0.336363636364     1.000000
 0.334545454545  0.334545454545  0.334545454545     1.000000
 0.332727272727  0.332727272727  0.332727272727     1.000000
 0.330909090909  0.330909090909  0.330909090909     1.000000
 0.329090909091  0.329090909091  0.329090909091     1.000000
 0.327272727273  0.327272727273  0.327272727273     1.000000
 0.325454545455  0.325454545455  0.325454545455     1.000000
 0.323636363636  0.323636363636  0.323636363636     1.000000
 0.321818181818  0.321818181818  0.321818181818     1.000000
 0.320000000000  0.320000000000  0.320000000000     1.000000
 0.318181818182  0.318181818182  0.318181818182     1.000000
 0.316363636364  0.316363636364  0.316363636364     1.000000
 0.314545454545  0.314545454545  0.314545454545     1.000000
 0.312727272727  0.312727272727  0.312727272727     1.000000
 0.310909090909  0.310909090909  0.310909090909     1.000000
 0.309090909091  0.309090909091  0.309090909091     1.000000
 0.307272727273  0.307272727273  0.307272727273     1.000000
 0.305454545455  0.305454545455  0.305454545455     1.000000
 0.303636363636  0.303636363636  0.303636363636     1.000000
 0.301818181818  0.301818181818  0.301818181818     1.000000
 0.300000000000  0.300000000000  0.300000000000     1.000000
 0.298181818182  0.298181818182  0.298181818182     1.000000
 0.296363636364  0.296363636364  0.296363636364     1.000000
 0.294545454545  0.294545454545  0.294545454545     1.000000
 0.292727272727  0.292727272727  0.292727272727     1.000000
 0.290909090909  0.290909090909  0.290909090909     1.000000
 0.289090909091  0.289090909091  0.289090909091     1.000000
 0.287272727273  0.287272727273  0.287272727273     1.000000
 0.285454545455  0.285454545455  0.285454545455     1.000000
 0.283636363636  0.283636363636  0.283636363636     1.000000
 0.281818181818  0.281818181818  0.281818181818     1.000000
 0.280000000000  0.280000000000  0.280000000000     1.000000
 0.278181818182  0.278181818182  0.278181818182     1.000000
 0.276363636364  0.276363636364  0.276363636364     1.000000
 0.274545454545  0.274545454545  0.274545454545     1.000000
 0.272727272727  0.272727272727  0.272727272727     1.000000
 0.270909090909  0.270909090909  0.270909090909     1.000000
 0.269090909091  0.269090909091  0.269090909091     1.000000
 0.267272727273  0.267272727273  0.267272727273     1.000000
 0.265454545455  0.265454545455  0.265454545455     1.000000
 0.263636363636  0.263636363636  0.263636363636     1.000000
 0.261818181818  0.261818181818  0.261818181818     1.000000
 0.260000000000  0.260000000000  0.260000000000     1.000000
 0.258181818182  0.258181818182  0.258181818182     1.000000
 0.256363636364  0.256363636364  0.256363636364     1.000000
 0.254545454545  0.254545454545  0.254545454545     1.000000
 0.252727272727  0.252727272727  0.252727272727     1.000000
 0.250909090909  0.250909090909  0.250909090909     1.000000
 0.249090909091  0.249090909091  0.249090909091     1.000000
 0.247272727273  0.247272727273  0.247272727273     1.000000
 0.245454545455  0.245454545455  0.245454545455     1.000000
 0.243636363636  0.243636363636  0.243636363636     1.000000
 0.241818181818  0.241818181818  0.241818181818     1.000000
 0.240000000000  0.240000000000  0.240000000000     1.000000
 0.238181818182  0.238181818182  0.238181818182     1.000000
 0.236363636364  0.236363636364  0.236363636364     1.000000
 0.234545454545  0.234545454545  0.234545454545     1.000000
 0.232727272727  0.232727272727  0.232727272727     1.000000
 0.230909090909  0.230909090909  0.230909090909     1.000000
 0.229090909091  0.229090909091  0.229090909091     1.000000
 0.227272727273  0.227272727273  0.227272727273     1.000000
 0.225454545455  0.225454545455  0.225454545455     1.000000
 0.223636363636  0.223636363636  0.223636363636     1.000000
 0.221818181818  0.221818181818  0.221818181818     1.000000
 0.220000000000  0.220000000000  0.220000000000     1.000000
 0.218181818182  0.218181818182  0.218181818182     1.000000
 0.216363636364  0.216363636364  0.216363636364     1.000000
 0.214545454545  0.214545454545  0.214545454545     1.000000
 0.212727272727  0.212727272727  0.212727272727     1.000000
 0.210909090909  0.210909090909  0.210909090909     1.000000
 0.209090909091  0.209090909091  0.209090909091     1.000000
 0.207272727273  0.207272727273  0.207272727273     1.000000
 0.205454545455  0.205454545455  0.205454545455     1.000000
 0.203636363636  0.203636363636  0.203636363636     1.000000
 0.201818181818  0.201818181818  0.201818181818     1.000000
 0.200000000000  0.200000000000  0.200000000000     1.000000
 0.198181818182  0.198181818182  0.198181818182     1.000000
 0.196363636364  0.196363636364  0.196363636364     1.000000
 0.194545454545  0.194545454545  0.194545454545     1.000000
 0.192727272727  0.192727272727  0.192727272727     1.000000
 0.190909090909  0.190909090909  0.190909090909     1.000000
 0.189090909091  0.189090909091  0.189090909091     1.000000
 0.187272727273  0.187272727273  0.187272727273     1.000000
 0.185454545455  0.185454545455  0.185454545455     1.000000
 0.183636363636  0.183636363636  0.183636363636     1.000000
 0.181818181818  0.181818181818  0.181818181818     1.000000
 0.180000000000  0.180000000000  0.180000000000     1.000000
 0.178181818182  0.178181818182  0.178181818182     1.000000
 0.176363636364  0.176363636364  0.176363636364     1.000000
 0.174545454545  0.174545454545  0.174545454545     1.000000
 0.172727272727  0.172727272727  0.172727272727     1.000000
 0.170909090909  0.170909090909  0.170909090909     1.000000
 0.169090909091  0.169090909091  0.169090909091     1.000000
 0.167272727273  0.167272727273  0.167272727273     1.000000
 0.165454545455  0.165454545455  0.165454545455     1.000000
 0.163636363636  0.163636363636  0.163636363636     1.000000
 0.161818181818  0.161818181818  0.161818181818     1.000000
 0.160000000000  0.160000000000  0.160000000000     1.000000
 0.158181818182  0.158181818182  0.158181818182     1.000000
 0.156363636364  0.156363636364  0.156363636364     1.000000
 0.154545454545  0.154545454545  0.154545454545     1.000000
 0.152727272727  0.152727272727  0.152727272727     1.000000
 0.150909090909  0.150909090909  0.150909090909     1.000000
 0.149090909091  0.149090909091  0.149090909091     1.000000
 0.147272727273  0.147272727273  0.147272727273     1.000000
 0.145454545455  0.145454545455  0.145454545455     1.000000
 0.143636363636  0.143636363636  0.143636363636     1.000000
 0.141818181818  0.141818181818  0.141818181818     1.000000
 0.140000000000  0.140000000000  0.140000000000     1.000000
 0.138181818182  0.138181818182  0.138181818182     1.000000
 0.136363636364  0.136363636364  0.136363636364     1.000000
 0.134545454545  0.134545454545  0.134545454545     1.000000
 0.132727272727  0.132727272727  0.132727272727     1.000000
 0.130909090909  0.130909090909  0.130909090909     1.000000
 0.129090909091  0.129090909091  0.129090909091     1.000000
 0.127272727273  0.127272727273  0.127272727273     1.000000
 0.125454545455  0.125454545455  0.125454545455     1.000000
 0.123636363636  0.123636363636  0.123636363636     1.000000
 0.121818181818  0.121818181818  0.121818181818     1.000000
 0.120000000000  0.120000000000  0.120000000000     1.000000
 0.118181818182  0.118181818182  0.118181818182     1.000000
 0.116363636364  0.116363636364  0.116363636364     1.000000
 0.114545454545  0.114545454545  0.114545454545     1.000000
 0.112727272727  0.112727272727  0.112727272727     1.000000
 0.110909090909  0.110909090909  0.110909090909     1.000000
 0.109090909091  0.109090909091  0.109090909091     1.000000
 0.107272727273  0.107272727273  0.107272727273     1.000000
 0.105454545455  0.105454545455  0.105454545455     1.000000
 0.103636363636  0.103636363636  0.103636363636     1.000000
 0.101818181818  0.101818181818  0.101818181818     1.000000
 0.100000000000  0.100000000000  0.100000000000     1.000000
 0.098181818182  0.098181818182  0.098181818182     1.000000
 0.096363636364  0.096363636364  0.096363636364     1.000000
 0.094545454545  0.094545454545  0.094545454545     1.000000
 0.092727272727  0.092727272727  0.092727272727     1.000000
 0.090909090909  0.090909090909  0.090909090909     1.000000
 0.089090909091  0.089090909091  0.089090909091     1.000000
 0.087272727273  0.087272727273  0.087272727273     1.000000
 0.085454545455  0.085454545455  0.085454545455     1.000000
 0.083636363636  0.083636363636  0.083636363636     1.000000
 0.081818181818  0.081818181818  0.081818181818     1.000000
 0.080000000000  0.080000000000  0.080000000000     1.000000
 0.078181818182  0.078181818182  0.078181818182     1.000000
 0.076363636364  0.076363636364  0.076363636364     1.000000
 0.074545454545  0.074545454545  0.074545454545     1.000000
 0.072727272727  0.072727272727  0.072727272727     1.000000
 0.070909090909  0.070909090909  0.070909090909     1.000000
 0.069090909091  0.069090909091  0.069090909091     1.000000
 0.067272727273  0.067272727273  0.067272727273     1.000000
 0.065454545455  0.065454545455  0.065454545455     1.000000
 0.063636363636  0.063636363636  0.063636363636     1.000000
 0.061818181818  0.061818181818  0.061818181818     1.000000
 0.060000000000  0.060000000000  0.060000000000     1.000000
 0.058181818182  0.058181818182  0.058181818182     1.000000
 0.056363636364  0.056363636364  0.056363636364     1.000000
 0.054545454545  0.054545454545  0.054545454545     1.000000
 0.052727272727  0.052727272727  0.052727272727     1.000000
 0.050909090909  0.050909090909  0.050909090909     1.000000
 0.049090909091  0.049090909091  0.049090909091     1.000000
 0.047272727273  0.047272727273  0.047272727273     1.000000
 0.045454545455  0.045454545455  0.045454545455     1.000000
 0.043636363636  0.043636363636  0.043636363636     1.000000
 0.041818181818  0.041818181818  0.041818181818     1.000000
 0.040000000000  0.040000000000  0.040000000000     1.000000
 0.038181818182  0.038181818182  0.038181818182     1.000000
 0.036363636364  0.036363636364  0.036363636364     1.000000
 0.034545454545  0.034545454545  0.034545454545     1.000000
 0.032727272727  0.032727272727  0.032727272727     1.000000
 0.030909090909  0.030909090909  0.030909090909     1.000000
 0.029090909091  0.029090909091  0.029090909091     1.000000
 0.027272727273  0.027272727273  0.027272727273     1.000000
 0.025454545455  0.025454545455  0.025454545455     1.000000
 0.023636363636  0.023636363636  0.023636363636     1.000000
 0.021818181818  0.021818181818  0.021818181818     1.000000
 0.020000000000  0.020000000000  0.020000000000     1.000000
 0.018181818182  0.018181818182  0.018181818182     1.000000
 0.016363636364  0.016363636364  0.016363636364     1.000000
 0.014545454545  0.014545454545  0.014545454545     1.000000
 0.012727272727  0.012727272727  0.012727272727     1.000000
 0.010909090909  0.010909090909  0.010909090909     1.000000
 0.009090909091  0.009090909091  0.009090909091     1.000000
 0.007272727273  0.007272727273  0.007272727273     1.000000
 0.005454545455  0.005454545455  0.005454545455     1.000000
 0.003636363636  0.003636363636  0.003636363636     1.000000
 0.001818181818  0.001818181818  0.001818181818     1.000000
 0.000000000000  0.000000000000  0.000000000000     1.000000
 0.000000000000  0.002232142857  0.002232142857     1.000000
 0.000000000000  0.004464285714  0.004464285714     1.000000
 0.000000000000  0.006696428571  0.006696428571     1.000000
 0.000000000000  0.008928571429  0.008928571429     1.000000
 0.000000000000  0.011160714286  0.011160714286     1.000000
 0.000000000000  0.013392857143  0.013392857143     1.000000
 0.000000000000  0.015625000000  0.015625000000     1.000000
 0.000000000000  0.017857142857  0.017857142857     1.000000
 0.000000000000  0.020089285714  0.020089285714     1.000000
 0.000000000000  0.022321428571  0.022321428571     1.000000
 0.000000000000  0.024553571429  0.024553571429     1.000000
 0.000000000000  0.026785714286  0.026785714286     1.000000
 0.000000000000  0.029017857143  0.029017857143     1.000000
 0.000000000000  0.031250000000  0.031250000000     1.000000
 0.000000000000  0.033482142857  0.033482142857     1.000000
 0.000000000000  0.035714285714  0.035714285714     1.000000
 0.000000000000  0.037946428571  0.037946428571     1.000000
 0.000000000000  0.040178571429  0.040178571429     1.000000
 0.000000000000  0.042410714286  0.042410714286     1.000000
 0.000000000000  0.044642857143  0.044642857143     1.000000
 0.000000000000  0.046875000000  0.046875000000     1.000000
 0.000000000000  0.049107142857  0.049107142857     1.000000
 0.000000000000  0.051339285714  0.051339285714     1.000000
 0.000000000000  0.053571428571  0.053571428571     1.000000
 0.000000000000  0.055803571429  0.055803571429     1.000000
 0.000000000000  0.058035714286  0.058035714286     1.000000
 0.000000000000  0.060267857143  0.060267857143     1.000000
 0.000000000000  0.062500000000  0.062500000000     1.000000
 0.000000000000  0.064732142857  0.064732142857     1.000000
 0.000000000000  0.066964285714  0.066964285714     1.000000
 0.000000000000  0.069196428571  0.069196428571     1.000000
 0.000000000000  0.071428571429  0.071428571429     1.000000
 0.000000000000  0.073660714286  0.073660714286     1.000000
 0.000000000000  0.075892857143  0.075892857143     1.000000
 0.000000000000  0.078125000000  0.078125000000     1.000000
 0.000000000000  0.080357142857  0.080357142857     1.000000
 0.000000000000  0.082589285714  0.082589285714     1.000000
 0.000000000000  0.084821428571  0.084821428571     1.000000
 0.000000000000  0.087053571429  0.087053571429     1.000000
 0.000000000000  0.089285714286  0.089285714286     1.000000
 0.000000000000  0.091517857143  0.091517857143     1.000000
 0.000000000000  0.093750000000  0.093750000000     1.000000
 0.000000000000  0.095982142857  0.095982142857     1.000000
 0.000000000000  0.098214285714  0.098214285714     1.000000
 0.000000000000  0.100446428571  0.100446428571     1.000000
 0.000000000000  0.102678571429  0.102678571429     1.000000
 0.000000000000  0.104910714286  0.104910714286     1.000000
 0.000000000000  0.107142857143  0.107142857143     1.000000
 0.000000000000  0.109375000000  0.109375000000     1.000000
 0.000000000000  0.111607142857  0.111607142857     1.000000
 0.000000000000  0.113839285714  0.113839285714     1.000000
 0.000000000000  0.116071428571  0.116071428571     1.000000
 0.000000000000  0.118303571429  0.118303571429     1.000000
 0.000000000000  0.120535714286  0.120535714286     1.000000
 0.000000000000  0.122767857143  0.122767857143     1.000000
 0.000000000000  0.125000000000  0.125000000000     1.000000
 0.000000000000  0.127232142857  0.127232142857     1.000000
 0.000000000000  0.129464285714  0.129464285714     1.000000
 0.000000000000  0.131696428571  0.131696428571     1.000000
 0.000000000000  0.133928571429  0.133928571429     1.000000
 0.000000000000  0.136160714286  0.136160714286     1.000000
 0.000000000000  0.138392857143  0.138392857143     1.000000
 0.000000000000  0.140625000000  0.140625000000     1.000000
 0.000000000000  0.142857142857  0.142857142857     1.000000
 0.000000000000  0.145089285714  0.145089285714     1.000000
 0.000000000000  0.147321428571  0.147321428571     1.000000
 0.000000000000  0.149553571429  0.149553571429     1.000000
 0.000000000000  0.151785714286  0.151785714286     1.000000
 0.000000000000  0.154017857143  0.154017857143     1.000000
 0.000000000000  0.156250000000  0.156250000000     1.000000
 0.000000000000  0.158482142857  0.158482142857     1.000000
 0.000000000000  0.160714285714  0.160714285714     1.000000
 0.000000000000  0.162946428571  0.162946428571     1.000000
 0.000000000000  0.165178571429  0.165178571429     1.000000
 0.000000000000  0.167410714286  0.167410714286     1.000000
 0.000000000000  0.169642857143  0.169642857143     1.000000
 0.000000000000  0.171875000000  0.171875000000     1.000000
 0.000000000000  0.174107142857  0.174107142857     1.000000
 0.000000000000  0.176339285714  0.176339285714     1.000000
 0.000000000000  0.178571428571  0.178571428571     1.000000
 0.000000000000  0.180803571429  0.180803571429     1.000000
 0.000000000000  0.183035714286  0.183035714286     1.000000
 0.000000000000  0.185267857143  0.185267857143     1.000000
 0.000000000000  0.187500000000  0.187500000000     1.000000
 0.000000000000  0.189732142857  0.189732142857     1.000000
 0.000000000000  0.191964285714  0.191964285714     1.000000
 0.000000000000  0.194196428571  0.194196428571     1.000000
 0.000000000000  0.196428571429  0.196428571429     1.000000
 0.000000000000  0.198660714286  0.198660714286     1.000000
 0.000000000000  0.200892857143  0.200892857143     1.000000
 0.000000000000  0.203125000000  0.203125000000     1.000000
 0.000000000000  0.205357142857  0.205357142857     1.000000
 0.000000000000  0.207589285714  0.207589285714     1.000000
 0.000000000000  0.209821428571  0.209821428571     1.000000
 0.000000000000  0.212053571429  0.212053571429     1.000000
 0.000000000000  0.214285714286  0.214285714286     1.000000
 0.000000000000  0.216517857143  0.216517857143     1.000000
 0.000000000000  0.218750000000  0.218750000000     1.000000
 0.000000000000  0.220982142857  0.220982142857     1.000000
 0.000000000000  0.223214285714  0.223214285714     1.000000
 0.000000000000  0.225446428571  0.225446428571     1.000000
 0.000000000000  0.227678571429  0.227678571429     1.000000
 0.000000000000  0.229910714286  0.229910714286     1.000000
 0.000000000000  0.232142857143  0.232142857143     1.000000
 0.000000000000  0.234375000000  0.234375000000     1.000000
 0.000000000000  0.236607142857  0.236607142857     1.000000
 0.000000000000  0.238839285714  0.238839285714     1.000000
 0.000000000000  0.241071428571  0.241071428571     1.000000
 0.000000000000  0.243303571429  0.243303571429     1.000000
 0.000000000000  0.245535714286  0.245535714286     1.000000
 0.000000000000  0.247767857143  0.247767857143     1.000000
 0.000000000000  0.250000000000  0.250000000000     1.000000
 0.000000000000  0.252232142857  0.252232142857     1.000000
 0.000000000000  0.254464285714  0.254464285714     1.000000
 0.000000000000  0.256696428571  0.256696428571     1.000000
 0.000000000000  0.258928571429  0.258928571429     1.000000
 0.000000000000  0.261160714286  0.261160714286     1.000000
 0.000000000000  0.263392857143  0.263392857143     1.000000
 0.000000000000  0.265625000000  0.265625000000     1.000000
 0.000000000000  0.267857142857  0.267857142857     1.000000
 0.000000000000  0.270089285714  0.270089285714     1.000000
 0.000000000000  0.272321428571  0.272321428571     1.000000
 0.000000000000  0.274553571429  0.274553571429     1.000000
 0.000000000000  0.276785714286  0.276785714286     1.000000
 0.000000000000  0.279017857143  0.279017857143     1.000000
 0.000000000000  0.281250000000  0.281250000000     1.000000
 0.000000000000  0.283482142857  0.283482142857     1.000000
 0.000000000000  0.285714285714  0.285714285714     1.000000
 0.000000000000  0.287946428571  0.287946428571     1.000000
 0.000000000000  0.290178571429  0.290178571429     1.000000
 0.000000000000  0.292410714286  0.292410714286     1.000000
 0.000000000000  0.294642857143  0.294642857143     1.000000
 0.000000000000  0.296875000000  0.296875000000     1.000000
 0.000000000000  0.299107142857  0.299107142857     1.000000
 0.000000000000  0.301339285714  0.301339285714     1.000000
 0.000000000000  0.303571428571  0.303571428571     1.000000
 0.000000000000  0.305803571429  0.305803571429     1.000000
 0.000000000000  0.308035714286  0.308035714286     1.000000
 0.000000000000  0.310267857143  0.310267857143     1.000000
 0.000000000000  0.312500000000  0.312500000000     1.000000
 0.000000000000  0.314732142857  0.314732142857     1.000000
 0.000000000000  0.316964285714  0.316964285714     1.000000
 0.000000000000  0.319196428571  0.319196428571     1.000000
 0.000000000000  0.321428571429  0.321428571429     1.000000
 0.000000000000  0.323660714286  0.323660714286     1.000000
 0.000000000000  0.325892857143  0.325892857143     1.000000
 0.000000000000  0.328125000000  0.328125000000     1.000000
 0.000000000000  0.330357142857  0.330357142857     1.000000
 0.000000000000  0.332589285714  0.332589285714     1.000000
 0.000000000000  0.334821428571  0.334821428571     1.000000
 0.000000000000  0.337053571429  0.337053571429     1.000000
 0.000000000000  0.339285714286  0.339285714286     1.000000
 0.000000000000  0.341517857143  0.341517857143     1.000000
 0.000000000000  0.343750000000  0.343750000000     1.000000
 0.000000000000  0.345982142857  0.345982142857     1.000000
 0.000000000000  0.348214285714  0.348214285714     1.000000
 0.000000000000  0.350446428571  0.350446428571     1.000000
 0.000000000000  0.352678571429  0.352678571429     1.000000
 0.000000000000  0.354910714286  0.354910714286     1.000000
 0.000000000000  0.357142857143  0.357142857143     1.000000
 0.000000000000  0.359375000000  0.359375000000     1.000000
 0.000000000000  0.361607142857  0.361607142857     1.000000
 0.000000000000  0.363839285714  0.363839285714     1.000000
 0.000000000000  0.366071428571  0.366071428571     1.000000
 0.000000000000  0.368303571429  0.368303571429     1.000000
 0.000000000000  0.370535714286  0.370535714286     1.000000
 0.000000000000  0.372767857143  0.372767857143     1.000000
 0.000000000000  0.375000000000  0.375000000000     1.000000
 0.000000000000  0.377232142857  0.377232142857     1.000000
 0.000000000000  0.379464285714  0.379464285714     1.000000
 0.000000000000  0.381696428571  0.381696428571     1.000000
 0.000000000000  0.383928571429  0.383928571429     1.000000
 0.000000000000  0.386160714286  0.386160714286     1.000000
 0.000000000000  0.388392857143  0.388392857143     1.000000
 0.000000000000  0.390625000000  0.390625000000     1.000000
 0.000000000000  0.392857142857  0.392857142857     1.000000
 0.000000000000  0.395089285714  0.395089285714     1.000000
 0.000000000000  0.397321428571  0.397321428571     1.000000
 0.000000000000  0.399553571429  0.399553571429     1.000000
 0.000000000000  0.401785714286  0.401785714286     1.000000
 0.000000000000  0.404017857143  0.404017857143     1.000000
 0.000000000000  0.406250000000  0.406250000000     1.000000
 0.000000000000  0.408482142857  0.408482142857     1.000000
 0.000000000000  0.410714285714  0.410714285714     1.000000
 0.000000000000  0.412946428571  0.412946428571     1.000000
 0.000000000000  0.415178571429  0.415178571429     1.000000