&CONTROL
! .control.settings
calculation               = 'nscf',
restart_mode              = 'from_scratch',
prefix                    = 'scf',
pseudo_dir                = '/shared/ESPRESSO/PSLIBRARY/1.0.0/pbe/PSEUDOPOTENTIALS/',
wf_collect                = .false.,

! .control.io
verbosity                 = 'low',
disk_io                   = 'medium',
wf_collect                = .false.,
outdir                    = '/home/theodoros/PROJ_TUTORIALS/theodoros/Lesson_9/SCF/tmp',

! .control.ion_relax
etot_conv_thr             = 0.0001,
forc_conv_thr             = 0.001,
nstep                     = 100,
tprnfor                   = .true.,
tstress                   = .true.,
/

&SYSTEM
! .system.structure
a                         = 1.0,
ibrav                     = 0,
nat                       = 2,
ntyp                      = 1,

! .system.ecut
ecutwfc                   = 35.0,
ecutrho                   = 140,

! .system.occupations
degauss                   = 0.007,
smearing                  = 'fd',
occupations               = 'smearing',

! .system.additional_keywords
tot_charge                = 0,
/

&ELECTRONS
! .electrons
diagonalization           = 'david',
mixing_mode               = 'plain',
electron_maxstep          = 100,
mixing_beta               = 0.7,
conv_thr                  = 1e-06,
/

! .atomic_species
ATOMIC_SPECIES
   Ge  72.6300 Ge.pbe-n-kjpaw_psl.1.0.0.UPF

ATOMIC_POSITIONS  crystal 
 Ge     0.00000000000000     0.00000000000000     0.00000000000000   1   1   1
 Ge     0.25000000000000     0.25000000000000     0.25000000000000   1   1   1
CELL_PARAMETERS alat
    0.00000000000000     2.88550000000000     2.88550000000000
    2.88550000000000     0.00000000000000     2.88550000000000
    2.88550000000000     2.88550000000000     0.00000000000000

! .kpoints
K_POINTS crystal   ! .kpoints.type 
31
 0.544375784715  0.544375784715  0.544375784715     1.000000
 0.505491800092  0.505491800092  0.505491800092     1.000000
 0.466607815470  0.466607815470  0.466607815470     1.000000
 0.427723830847  0.427723830847  0.427723830847     1.000000
 0.388839846225  0.388839846225  0.388839846225     1.000000
 0.349955861602  0.349955861602  0.349955861602     1.000000
 0.311071876980  0.311071876980  0.311071876980     1.000000
 0.272187892357  0.272187892357  0.272187892357     1.000000
 0.233303907735  0.233303907735  0.233303907735     1.000000
 0.194419923112  0.194419923112  0.194419923112     1.000000
 0.155535938490  0.155535938490  0.155535938490     1.000000
 0.116651953867  0.116651953867  0.116651953867     1.000000
 0.077767969245  0.077767969245  0.077767969245     1.000000
 0.038883984622  0.038883984622  0.038883984622     1.000000
 0.000000000000  0.000000000000  0.000000000000     1.000000
 0.000000000000  0.068046973089  0.000000000000     1.000000
 0.000000000000  0.136093946179  0.000000000000     1.000000
 0.000000000000  0.204140919268  0.000000000000     1.000000
 0.000000000000  0.272187892357  0.000000000000     1.000000
 0.000000000000  0.340234865447  0.000000000000     1.000000
 0.000000000000  0.408281838536  0.000000000000     1.000000
 0.000000000000  0.476328811626  0.000000000000     1.000000
 0.000000000000  0.544375784715  0.000000000000     1.000000
 0.000000000000  0.612422757804  0.000000000000     1.000000
 0.000000000000  0.680469730894  0.000000000000     1.000000
 0.000000000000  0.748516703983  0.000000000000     1.000000
 0.000000000000  0.816563677072  0.000000000000     1.000000
 0.000000000000  0.884610650162  0.000000000000     1.000000
 0.000000000000  0.952657623251  0.000000000000     1.000000
 0.000000000000  1.020704596340  0.000000000000     1.000000
 0.000000000000  1.088751569430  0.000000000000     1.000000
