&DOS
    prefix = 'scf'
    outdir = '/home/theodoros/PROJ_TUTORIALS/theodoros/Ge_DFT_U/bands/SCF/tmp'
    Emin = -10
    Emax = 15
    DeltaE = 0.01
 /
